866293
0,47,36,73,31,59,30,61,29,95,20,19,76,9,55,17,40,68,74,5,48,92,62,12,67,98,79,86,75,37,35,71,54,43,90,52,7,88,84,2,4,63,26,1,34,41,96,49,87,82,14,60,66,81,57,15,44,3,65,6,80,85,13,38,91,83,42,51,64,53,97,22,10,27,45,33,70,89,58,23,18,11,16,25,93,39,28,78,50,77,24,21,72,94,46,56,32,8,69,0